Version identifier: 22.1.1.0 | 2022-11-28 | 9160aff4d
CPXPARAM_Read_DataCheck                          1
CPXPARAM_Threads                                 1
CPXPARAM_MIP_Strategy_NodeSelect                 0
CPXPARAM_TimeLimit                               1800
CPXPARAM_MIP_Tolerances_MIPGap                   9.9999999999999995e-07
Legacy callback                                  LD
Warning: Control callbacks may disable some MIP features.
Lazy constraint(s) or lazy constraint/branch callback is present.
    Disabling dual reductions (CPX_PARAM_REDUCE) in presolve.
    Disabling presolve reductions that prevent crushing forms (CPX_PARAM_PREREFORM).
         Disabling repeat represolve because of lazy constraint/incumbent callback.
Tried aggregator 1 time.
Reduced MIP has 100 rows, 2450 columns, and 4900 nonzeros.
Reduced MIP has 2450 binaries, 0 generals, 0 SOSs, and 0 indicators.
Presolve time = 0.00 sec. (1.56 ticks)
Probing time = 0.00 sec. (2.94 ticks)
Clique table members: 100.
MIP emphasis: balance optimality and feasibility.
MIP search method: traditional branch-and-cut.
Parallel mode: none, using 1 thread.
Root relaxation solution time = 0.00 sec. (1.27 ticks)

        Nodes                                         Cuts/
   Node  Left     Objective  IInf  Best Integer    Best Bound    ItCnt     Gap         Variable B NodeID Parent  Depth

      0     0      281.0000    18                    268.0000       42         
      0     2      282.5000    36                    282.5000       42                                 0             0
Elapsed time = 0.16 sec. (90.69 ticks, tree = 0.01 MB, solutions = 0)
*    35    35      integral     0      397.0000      283.2500      187   28.65%
     60    30      390.2500    21      397.0000      283.2500      408   28.65%          x_2_14 D     60     59     29
*   136    26      integral     0      389.0000      283.2500      699   27.19%
*   155    22      integral     0      388.0000      283.2500      816   27.00%
*   170+   25                          384.0000      283.2500            26.24%
*   172    25      integral     0      383.0000      283.2500      943   26.04%
*   177    23      integral     0      382.0000      283.2500      966   25.85%
*   180    22      integral     0      380.0000      283.2500      982   25.46%
*   181    21      integral     0      379.0000      283.2500      983   25.26%
*   184    20      integral     0      376.0000      283.2500     1007   24.67%
*   200    20      integral     0      375.0000      283.2500     1102   24.47%
*   202    20      integral     0      373.0000      283.2500     1121   24.06%
*   204    20      integral     0      372.0000      283.2500     1126   23.86%
    210    19      364.2000    54      372.0000      283.2500     1217   23.86%         x_10_27 D    210     17     18
*   225    17      integral     0      356.0000      283.2500     1328   20.44%
*   264    14      integral     0      353.0000      283.2500     1797   19.76%
*   267    13      integral     0      351.0000      283.2500     1811   19.30%
*   272    10      integral     0      349.0000      283.2500     1855   18.84%
*   288     8      integral     0      348.0000      283.2500     2067   18.61%
*   313    10      integral     0      347.0000      283.2500     2345   18.37%
*   315     7      integral     0      344.0000      283.2500     2365   17.66%
*   319     7      integral     0      341.0000      283.2500     2492   16.94%
*   324     6      integral     0      340.0000      283.2500     2519   16.69%
    324     6      340.0000     0      340.0000      283.2500     2519   16.69%          x_6_37 U    324    322     10
*   352     8      integral     0      335.0000      283.2500     2854   15.45%
*   412     4      integral     0      334.0000      283.2500     3124   15.19%
*   437     2      integral     0      329.0000      286.0000     3346   13.07%

User cuts applied:  196

Root node processing (before b&c):
  Real time             =    0.16 sec. (91.09 ticks)
Sequential b&c:
  Real time             =    1.04 sec. (896.90 ticks)
                          ------------
Total (root+branch&cut) =    1.20 sec. (987.99 ticks)
